% demand
num_movements = 39;
loading_factor = [800, 1900, 1350, 1650, 1000, 1000, 1650, 1650, 1300, 1450, 1800, 1350, 1950, 1500, 1050, 1650, 1300, 1650, 1200, 1650, 1200, 1400, 1600, 1400, 1750, 1150, 1700, 1900, 1050, 1750, 1800, 800, 900, 1000, 1400, 800, 1450, 1450, 1700];
pickup_time = [0, 0, 0, 0, 0, 0, 0, 0, 1, 1, 1, 1, 1, 1, 2, 2, 2, 2, 2, 5, 5, 7, 7, 7, 7, 7, 7, 7, 9, 9, 9, 9, 9, 9, 10, 10, 10, 10, 11];
delivery_time = [1, 1, 1, 1, 1, 1, 2, 1, 2, 2, 3, 4, 2, 2, 6, 3, 6, 6, 6, 6, 6, 8, 8, 11, 8, 8, 8, 10, 10, 10, 10, 12, 10, 10, 11, 12, 12, 12, 12];

% transporter definition
total_capacity = 11000;
num_decks = 4;
capacity = [3000, 3000, 1000, 4000];

% ways out of decks
num_ways_out = 2;
paths_out = array3d(decks, ways_out, decks, [
% ways out of deck d1
2, 4, 0, 0, 3, 4, 0, 0, 

% ways out of deck d2
4, 0, 0, 0, 0, 0, 0, 0,	

% ways out of deck d3
4, 0, 0, 0, 0, 0, 0, 0,	

% ways out of deck d4
0, 0, 0, 0,	0, 0, 0, 0,	

]);

